17	4
45	32	46	34	
0	0	0	0	0	3	2	3	4	
4	4	8	7	10	3	6	7	9	
9	8	3	8	10	3	8	10	13	
5	2	9	1	8	2	5	6	
9	3	3	9	3	3	7	9	17	
175	8	8	5	7	2	17	17	
200	4	8	9	1	3	14	17	17	
250	4	1	10	10	1	17	
200	5	7	4	10	2	11	12	
225	8	4	8	6	2	11	12	
50	7	3	4	5	2	16	17	
200	6	4	8	2	1	17	
6	3	6	2	6	1	17	
6	10	9	8	2	2	15	16	
1	8	9	5	10	2	17	17	
1	9	3	5	2	3	17	17	17	
0	0	0	0	0	0	
